%%% static parameters %%%
timespan = 1;
Clients_N = [1000];
Demand_W = [15];
Lt0 = [4];
Lt1 = [4];
SS_ = [0.85];
DS_D = [20];
K = [200];
MA = [500];
HC = [0.05];
%%% dynamic parameters %%%
lost_ratio_sales_ret_th = 0.007215038680507859;
lost_ratio_sales_ret_w = 4;
lost_ratio_sales_dis_th = 0.0060180744240076215;
lost_ratio_sales_dis_w = 97;
lost_ratio_sales_fac_th = 0.007692872328450873;
lost_ratio_sales_fac_w = 63;
stock_customer_MA_mean_relative_th = 0.2061158053008204;
stock_customer_MA_mean_relative_w = 94;
stock_distributor_MA_mean_relative_th = 0.08335868384581568;
stock_distributor_MA_mean_relative_w = 47;
stock_retailer_MA_mean_relative_th = 0.6562732961972286;
stock_retailer_MA_mean_relative_w = 53;
stock_factory_MA_mean_relative_th = 0.014934801466296;
stock_factory_MA_mean_relative_w = 66;
